; benchmark generated from python API
(set-info :status unknown)
(declare-fun x_month () (_ BitVec 32))
(declare-fun x_year () (_ BitVec 32))
(declare-fun x_day () (_ BitVec 32))
(assert
 (let (($x2430 (= (_ bv4 32) x_month)))
 (let ((?x3332 (ite (or $x2430 (= (_ bv6 32) x_month) (= (_ bv9 32) x_month) (= (_ bv11 32) x_month)) (_ bv30 32) (_ bv31 32))))
 (let (($x1427 (and (= (_ bv0 32) (bvsmod x_year (_ bv4 32))) (and (distinct (_ bv0 32) (bvsmod x_year (_ bv100 32))) true))))
 (let ((?x1266 (ite (= (_ bv2 32) x_month) (ite (or $x1427 (= (_ bv0 32) (bvsmod x_year (_ bv400 32)))) (_ bv29 32) (_ bv28 32)) ?x3332)))
 (let (($x2102 (bvsle x_day ?x1266)))
 (let (($x565 (bvsle (_ bv1 32) x_day)))
 (let (($x1640 (bvsle (_ bv1 32) x_month)))
 (let (($x903 (bvsge (_ bv12 32) x_month)))
 (let (($x3997 (bvsle (_ bv1901 32) x_year)))
 (or (and (= (_ bv1900 32) x_year) (bvsle (_ bv3 32) x_month) $x903 $x565 $x2102) (and $x3997 (bvsge (_ bv2099 32) x_year) $x1640 $x903 $x565 $x2102) (and (= (_ bv2100 32) x_year) $x1640 (bvsge (_ bv2 32) x_month) $x565 $x2102))))))))))))
(assert
 (let (($x1667 (or (bvsgt (_ bv4 32) x_month) (and (= (_ bv4 32) x_month) (bvsge (_ bv30 32) x_day)))))
 (let (($x2494 (= (_ bv2023 32) x_year)))
 (not (or (bvsgt (_ bv2023 32) x_year) (and $x2494 $x1667))))))
(assert
 (let (($x3234 (or (bvslt (_ bv5 32) x_month) (and (= (_ bv5 32) x_month) (bvsle (_ bv1 32) x_day)))))
(let (($x2494 (= (_ bv2023 32) x_year)))
(not (or (bvslt (_ bv2023 32) x_year) (and $x2494 $x3234))))))
(check-sat)
